(set-option :auto-config false)
(set-option :model true)

(set-option :smt.mbqi false)

(define-sort Str () Int)
(declare-fun strLen (Str) Int)
(declare-fun subString (Str Int Int) Str)
(declare-fun concatString (Str Str) Str)
(define-sort Elt () Int)
(define-sort LSet () (Array Elt Bool))
(define-fun smt_set_emp () LSet ((as const LSet) false))
(define-fun smt_set_sng ((x Elt)) LSet (store ((as const LSet) false) x true))
(define-fun smt_set_mem ((x Elt) (s LSet)) Bool (select s x))
(define-fun smt_set_add ((s LSet) (x Elt)) LSet (store s x true))
(define-fun smt_set_cup ((s1 LSet) (s2 LSet)) LSet ((_ map or) s1 s2))
(define-fun smt_set_cap ((s1 LSet) (s2 LSet)) LSet ((_ map and) s1 s2))
(define-fun smt_set_com ((s LSet)) LSet ((_ map not) s))
(define-fun smt_set_dif ((s1 LSet) (s2 LSet)) LSet (smt_set_cap s1 (smt_set_com s2)))
(define-fun smt_set_sub ((s1 LSet) (s2 LSet)) Bool (= smt_set_emp (smt_set_dif s1 s2)))
(define-sort Map () (Array Elt Elt))
(define-fun smt_map_sel ((m Map) (k Elt)) Elt (select m k))
(define-fun smt_map_sto ((m Map) (k Elt) (v Elt)) Map (store m k v))
(define-fun smt_map_cup ((m1 Map) (m2 Map)) Map ((_ map (+ (Elt Elt) Elt)) m1 m2))
(define-fun smt_map_prj ((s LSet) (m Map)) Map ((_ map (ite (Bool Elt Elt) Elt)) s m ((as const (Array Elt Elt)) 0)))
(define-fun smt_map_to_set ((m Map)) LSet ((_ map (> (Elt Elt) Bool)) m ((as const (Array Elt Elt)) 0)))
(define-fun smt_map_max ((m1 Map) (m2 Map)) Map (lambda ((i Int)) (ite (> (select m1 i) (select m2 i)) (select m1 i) (select m2 i))))
(define-fun smt_map_min ((m1 Map) (m2 Map)) Map (lambda ((i Int)) (ite (< (select m1 i) (select m2 i)) (select m1 i) (select m2 i))))
(define-fun smt_map_shift ((n Int) (m Map)) Map (lambda ((i Int)) (select m (- i n))))
(define-fun smt_map_def ((v Elt)) Map ((as const (Map)) v))
(define-fun bool_to_int ((b Bool)) Int (ite b 1 0))
(define-fun Z3_OP_MUL ((x Int) (y Int)) Int (* x y))
(define-fun Z3_OP_DIV ((x Int) (y Int)) Int (div x y))
(declare-fun papp7 () Int)
(declare-fun GHC.Exception.Type.C$58$Exception () Int)
(declare-fun GHC.Types.$91$$93$ () Int)
(declare-fun lq_tmp$36$x$35$$35$4452 () Int)
(declare-fun lq_tmp$36$x$35$$35$3518 () Int)
(declare-fun GHC.Types.Word32Rep () Int)
(declare-fun lq_tmp$36$x$35$$35$3765 () Int)
(declare-fun UseCases.AgricultureUseCase.getInfo () Int)
(declare-fun GHC.Types.C$35$ () Int)
(declare-fun Network.HTTP.Types.Method.DELETE () Int)
(declare-fun InterfaceAdapters.AgricultureRestService.agricultureServer () Int)
(declare-fun Network.HTTP.Types.Method.HEAD () Int)
(declare-fun GHC.Types.$58$ () Int)
(declare-fun tail () Int)
(declare-fun Data.Aeson.Types.ToJSON.C$58$ToJSON () Int)
(declare-fun Polysemy.Embed.Type.$36$WEmbed () Int)
(declare-fun GHC.Types.Word8Rep () Int)
(declare-fun lq_tmp$36$x$35$$35$3542 () Int)
(declare-fun lq_tmp$36$x$35$$35$3506 () Int)
(declare-fun UseCases.AgricultureUseCase.C$58$UserInput () Int)
(declare-fun UseCases.WWI.$36$WSendBackMsg () Int)
(declare-fun lq_tmp$36$x$35$$35$4340 () Int)
(declare-fun GHC.Tuple.$40$$44$$41$ () Int)
(declare-fun Data.Aeson.Types.Internal.$36$WBool () Int)
(declare-fun Data.Aeson.Types.Internal.Object () Int)
(declare-fun papp5 () Int)
(declare-fun GHC.Types.Word16Rep () Int)
(declare-fun GHC.Maybe.Just () Int)
(declare-fun x_Tuple22 () Int)
(declare-fun Data.Aeson.Types.Internal.$36$WNumber () Int)
(declare-fun lq_tmp$36$x$35$$35$3831 () Int)
(declare-fun GHC.Generics.C$58$Generic () Int)
(declare-fun lq_tmp$36$x$35$$35$3763 () Int)
(declare-fun GHC.IO.Exception.IOError () Int)
(declare-fun GHC.Types.Module () Int)
(declare-fun GHC.Stack.Types.FreezeCallStack () Int)
(declare-fun Network.HTTP.Types.Method.OPTIONS () Int)
(declare-fun GHC.Types.TrNameD () Int)
(declare-fun GHC.Types.Word64Rep () Int)
(declare-fun GHC.Types.UnliftedRep () Int)
(declare-fun Data.Aeson.Types.Internal.Array () Int)
(declare-fun GHC.Exception.Type.SomeException () Int)
(declare-fun lq_anf$36$$35$$35$7205759403794028761$35$$35$d5bjX () Int)
(declare-fun GHC.Types.IntRep () Int)
(declare-fun lq_tmp$36$x$35$$35$3540 () Int)
(declare-fun GHC.Types.DoubleRep () Int)
(declare-fun Data.Text.Internal.Text () Int)
(declare-fun lq_anf$36$$35$$35$7205759403794028756$35$$35$d5bjS () Int)
(declare-fun lq_tmp$36$x$35$$35$3745 () Int)
(declare-fun lq_tmp$36$x$35$$35$3622 () Int)
(declare-fun GHC.Types.Int8Rep () Int)
(declare-fun Web.Telegram.API.Bot.API.Core.Token () Int)
(declare-fun GHC.Real.$36$W$58$$37$ () Int)
(declare-fun UseCases.WWI.UserAsk () Int)
(declare-fun GHC.Types.WordRep () Int)
(declare-fun papp3 () Int)
(declare-fun Polysemy.Embed.Type.Embed () Int)
(declare-fun InterfaceAdapters.AgricultureRestService.agricultureAPI () Int)
(declare-fun Data.Aeson.Types.Internal.Bool () Int)
(declare-fun lq_tmp$36$x$35$$35$3833 () Int)
(declare-fun lq_tmp$36$x$35$$35$4351 () Int)
(declare-fun Data.Aeson.Types.Internal.String () Int)
(declare-fun GHC.Enum.C$58$Bounded () Int)
(declare-fun lq_tmp$36$x$35$$35$3764 () Int)
(declare-fun GHC.Types.True () Int)
(declare-fun lq_tmp$36$x$35$$35$3519 () Int)
(declare-fun lq_anf$36$$35$$35$7205759403794028767$35$$35$d5bk3 () Int)
(declare-fun GHC.Stack.Types.EmptyCallStack () Int)
(declare-fun x_Tuple33 () Int)
(declare-fun Data.Either.Right () Int)
(declare-fun Data.Aeson.Types.FromJSON.C$58$FromJSON () Int)
(declare-fun Servant.API.Alternative.$58$$60$$124$$62$ () Int)
(declare-fun lq_tmp$36$x$35$$35$3516 () Int)
(declare-fun Network.HTTP.Types.Method.PUT () Int)
(declare-fun Data.Proxy.Proxy () Int)
(declare-fun GHC.Show.C$58$Show () Int)
(declare-fun cast_as () Int)
(declare-fun Data.Text.Internal.$36$WText () Int)
(declare-fun UseCases.AgricultureUseCase.$36$fUserInputUpdate () Int)
(declare-fun cast_as_int () Int)
(declare-fun lq_anf$36$$35$$35$7205759403794028759$35$$35$d5bjV () Int)
(declare-fun Data.Aeson.Types.Internal.$36$WObject () Int)
(declare-fun lq_tmp$36$x$35$$35$3747 () Int)
(declare-fun lq_tmp$36$x$35$$35$3620 () Int)
(declare-fun UseCases.WWI.SendBackMsg () Int)
(declare-fun GHC.Types.Int64Rep () Int)
(declare-fun GHC.Types.LT () Int)
(declare-fun GHC.Tuple.$40$$44$$44$$41$ () Int)
(declare-fun papp1 () Int)
(declare-fun GHC.Classes.$36$p2$40$$37$$44$$37$$41$ () Int)
(declare-fun UseCases.WWI.sendBackMsg () Int)
(declare-fun GHC.Types.AddrRep () Int)
(declare-fun lq_anf$36$$35$$35$7205759403794028758$35$$35$d5bjU () Int)
(declare-fun Network.HTTP.Types.Method.POST () Int)
(declare-fun papp6 () Int)
(declare-fun GHC.Classes.C$58$IP () Int)
(declare-fun Data.Either.Left () Int)
(declare-fun GHC.Classes.C$58$Eq () Int)
(declare-fun liquid_internal_this () Int)
(declare-fun fldList () Int)
(declare-fun fix$36$$36$d$40$$37$$44$$37$$41$_a5biO () Int)
(declare-fun GHC.Tuple.$40$$41$ () Int)
(declare-fun GHC.Types.I$35$ () Int)
(declare-fun x_Tuple31 () Int)
(declare-fun lit$36$InterfaceAdapters.AgricultureRestService () Str)
(declare-fun GHC.Num.Integer.IS () Int)
(declare-fun GHC.Types.FloatRep () Int)
(declare-fun Data.Aeson.Types.Internal.$36$WArray () Int)
(declare-fun Data.Aeson.Types.Internal.Null () Int)
(declare-fun Web.Telegram.API.Bot.Data.Update () Int)
(declare-fun lq_tmp$36$x$35$$35$4367 () Int)
(declare-fun Network.HTTP.Types.Method.GET () Int)
(declare-fun GHC.Types.LiftedRep () Int)
(declare-fun GHC.Types.EQ () Int)
(declare-fun GHC.Real.$58$$37$ () Int)
(declare-fun GHC.Types.VecRep () Int)
(declare-fun lq_tmp$36$x$35$$35$3507 () Int)
(declare-fun UseCases.WWI.getWeatherTown () Int)
(declare-fun lit$36$MaximumCity$45$0.9.9$45$IUoVqdUkwWmEGL6yhjWbHS () Str)
(declare-fun UseCases.WWI.GetWeatherTown () Int)
(declare-fun lq_tmp$36$x$35$$35$4536 () Int)
(declare-fun lq_tmp$36$x$35$$35$3539 () Int)
(declare-fun lq_tmp$36$x$35$$35$3623 () Int)
(declare-fun fix$36$$36$d$40$$37$$44$$37$$41$_a5biP () Int)
(declare-fun InterfaceAdapters.Preferences.Preferences () Int)
(declare-fun GHC.Types.Int16Rep () Int)
(declare-fun papp4 () Int)
(declare-fun lq_tmp$36$x$35$$35$4579 () Int)
(declare-fun GHC.Types.eq_sel () Int)
(declare-fun Data.Aeson.Types.Internal.$36$WString () Int)
(declare-fun GHC.Stack.Types.PushCallStack () Int)
(declare-fun lq_anf$36$$35$$35$7205759403794028755$35$$35$d5bjR () Int)
(declare-fun Network.HTTP.Types.Method.TRACE () Int)
(declare-fun GHC.Types.Eq$35$ () Int)
(declare-fun lq_tmp$36$x$35$$35$4350 () Int)
(declare-fun Network.HTTP.Types.Method.CONNECT () Int)
(declare-fun lq_anf$36$$35$$35$7205759403794028763$35$$35$d5bjZ () Int)
(declare-fun GHC.Types.SumRep () Int)
(declare-fun UseCases.AgricultureUseCase.$36$fUserInputText () Int)
(declare-fun x_Tuple21 () Int)
(declare-fun lq_tmp$36$x$35$$35$3832 () Int)
(declare-fun head () Int)
(declare-fun GHC.Maybe.Nothing () Int)
(declare-fun lq_anf$36$$35$$35$7205759403794028762$35$$35$d5bjY () Int)
(declare-fun lq_tmp$36$x$35$$35$3517 () Int)
(declare-fun Network.HTTP.Types.Method.PATCH () Int)
(declare-fun UseCases.WWI.$36$WGetWeatherTown () Int)
(declare-fun GHC.Classes.C$58$$40$$37$$44$$37$$41$ () Int)
(declare-fun GHC.Num.Integer.IP () Int)
(declare-fun Web.Telegram.API.Bot.Data.User () Int)
(declare-fun x_Tuple32 () Int)
(declare-fun Data.Aeson.Types.Internal.Number () Int)
(declare-fun GHC.Types.TupleRep () Int)
(declare-fun lq_tmp$36$x$35$$35$3541 () Int)
(declare-fun GHC.Types.TrNameS () Int)
(declare-fun GHC.Num.Integer.IN () Int)
(declare-fun lq_anf$36$$35$$35$7205759403794028765$35$$35$d5bk1 () Int)
(declare-fun lq_tmp$36$x$35$$35$3746 () Int)
(declare-fun lq_tmp$36$x$35$$35$3621 () Int)
(declare-fun GHC.Types.False () Int)
(declare-fun Data.Typeable.Internal.C$58$Typeable () Int)
(declare-fun papp2 () Int)
(declare-fun Polysemy.Internal.Union.C$58$Find () Int)
(declare-fun GHC.Types.GT () Int)
(declare-fun GHC.Types.Int32Rep () Int)
(declare-fun apply$35$$35$13 (Int (_ BitVec 32)) Bool)
(declare-fun apply$35$$35$1 (Int Int) Bool)
(declare-fun apply$35$$35$3 (Int Int) (_ BitVec 32))
(declare-fun apply$35$$35$15 (Int (_ BitVec 32)) (_ BitVec 32))
(declare-fun apply$35$$35$14 (Int (_ BitVec 32)) Str)
(declare-fun apply$35$$35$9 (Int Str) Bool)
(declare-fun apply$35$$35$4 (Int Bool) Int)
(declare-fun apply$35$$35$10 (Int Str) Str)
(declare-fun apply$35$$35$11 (Int Str) (_ BitVec 32))
(declare-fun apply$35$$35$12 (Int (_ BitVec 32)) Int)
(declare-fun apply$35$$35$8 (Int Str) Int)
(declare-fun apply$35$$35$0 (Int Int) Int)
(declare-fun apply$35$$35$6 (Int Bool) Str)
(declare-fun apply$35$$35$7 (Int Bool) (_ BitVec 32))
(declare-fun apply$35$$35$2 (Int Int) Str)
(declare-fun apply$35$$35$5 (Int Bool) Bool)
(declare-fun coerce$35$$35$13 ((_ BitVec 32)) Bool)
(declare-fun coerce$35$$35$1 (Int) Bool)
(declare-fun coerce$35$$35$3 (Int) (_ BitVec 32))
(declare-fun coerce$35$$35$15 ((_ BitVec 32)) (_ BitVec 32))
(declare-fun coerce$35$$35$14 ((_ BitVec 32)) Str)
(declare-fun coerce$35$$35$9 (Str) Bool)
(declare-fun coerce$35$$35$4 (Bool) Int)
(declare-fun coerce$35$$35$10 (Str) Str)
(declare-fun coerce$35$$35$11 (Str) (_ BitVec 32))
(declare-fun coerce$35$$35$12 ((_ BitVec 32)) Int)
(declare-fun coerce$35$$35$8 (Str) Int)
(declare-fun coerce$35$$35$0 (Int) Int)
(declare-fun coerce$35$$35$6 (Bool) Str)
(declare-fun coerce$35$$35$7 (Bool) (_ BitVec 32))
(declare-fun coerce$35$$35$2 (Int) Str)
(declare-fun coerce$35$$35$5 (Bool) Bool)
(declare-fun smt_lambda$35$$35$13 ((_ BitVec 32) Bool) Int)
(declare-fun smt_lambda$35$$35$1 (Int Bool) Int)
(declare-fun smt_lambda$35$$35$3 (Int (_ BitVec 32)) Int)
(declare-fun smt_lambda$35$$35$15 ((_ BitVec 32) (_ BitVec 32)) Int)
(declare-fun smt_lambda$35$$35$14 ((_ BitVec 32) Str) Int)
(declare-fun smt_lambda$35$$35$9 (Str Bool) Int)
(declare-fun smt_lambda$35$$35$4 (Bool Int) Int)
(declare-fun smt_lambda$35$$35$10 (Str Str) Int)
(declare-fun smt_lambda$35$$35$11 (Str (_ BitVec 32)) Int)
(declare-fun smt_lambda$35$$35$12 ((_ BitVec 32) Int) Int)
(declare-fun smt_lambda$35$$35$8 (Str Int) Int)
(declare-fun smt_lambda$35$$35$0 (Int Int) Int)
(declare-fun smt_lambda$35$$35$6 (Bool Str) Int)
(declare-fun smt_lambda$35$$35$7 (Bool (_ BitVec 32)) Int)
(declare-fun smt_lambda$35$$35$2 (Int Str) Int)
(declare-fun smt_lambda$35$$35$5 (Bool Bool) Int)
(declare-fun lam_arg$35$$35$1$35$$35$4 () Bool)
(declare-fun lam_arg$35$$35$2$35$$35$4 () Bool)
(declare-fun lam_arg$35$$35$3$35$$35$4 () Bool)
(declare-fun lam_arg$35$$35$4$35$$35$4 () Bool)
(declare-fun lam_arg$35$$35$5$35$$35$4 () Bool)
(declare-fun lam_arg$35$$35$6$35$$35$4 () Bool)
(declare-fun lam_arg$35$$35$7$35$$35$4 () Bool)
(declare-fun lam_arg$35$$35$1$35$$35$12 () (_ BitVec 32))
(declare-fun lam_arg$35$$35$2$35$$35$12 () (_ BitVec 32))
(declare-fun lam_arg$35$$35$3$35$$35$12 () (_ BitVec 32))
(declare-fun lam_arg$35$$35$4$35$$35$12 () (_ BitVec 32))
(declare-fun lam_arg$35$$35$5$35$$35$12 () (_ BitVec 32))
(declare-fun lam_arg$35$$35$6$35$$35$12 () (_ BitVec 32))
(declare-fun lam_arg$35$$35$7$35$$35$12 () (_ BitVec 32))
(declare-fun lam_arg$35$$35$1$35$$35$8 () Str)
(declare-fun lam_arg$35$$35$2$35$$35$8 () Str)
(declare-fun lam_arg$35$$35$3$35$$35$8 () Str)
(declare-fun lam_arg$35$$35$4$35$$35$8 () Str)
(declare-fun lam_arg$35$$35$5$35$$35$8 () Str)
(declare-fun lam_arg$35$$35$6$35$$35$8 () Str)
(declare-fun lam_arg$35$$35$7$35$$35$8 () Str)
(declare-fun lam_arg$35$$35$1$35$$35$0 () Int)
(declare-fun lam_arg$35$$35$2$35$$35$0 () Int)
(declare-fun lam_arg$35$$35$3$35$$35$0 () Int)
(declare-fun lam_arg$35$$35$4$35$$35$0 () Int)
(declare-fun lam_arg$35$$35$5$35$$35$0 () Int)
(declare-fun lam_arg$35$$35$6$35$$35$0 () Int)
(declare-fun lam_arg$35$$35$7$35$$35$0 () Int)

(assert (distinct GHC.Types.False GHC.Types.True))

(assert (distinct lit$36$MaximumCity$45$0.9.9$45$IUoVqdUkwWmEGL6yhjWbHS lit$36$InterfaceAdapters.AgricultureRestService))
(assert (distinct GHC.Types.Int32Rep GHC.Types.Int16Rep GHC.Types.LiftedRep GHC.Types.FloatRep GHC.Types.AddrRep GHC.Types.Int64Rep GHC.Types.WordRep GHC.Types.Int8Rep GHC.Types.DoubleRep GHC.Types.IntRep GHC.Types.UnliftedRep GHC.Types.Word64Rep GHC.Types.Word16Rep GHC.Types.Word8Rep GHC.Types.Word32Rep))

(assert (distinct Network.HTTP.Types.Method.PATCH Network.HTTP.Types.Method.CONNECT Network.HTTP.Types.Method.TRACE Network.HTTP.Types.Method.GET Network.HTTP.Types.Method.POST Network.HTTP.Types.Method.PUT Network.HTTP.Types.Method.OPTIONS Network.HTTP.Types.Method.HEAD Network.HTTP.Types.Method.DELETE))
(assert (distinct GHC.Types.GT GHC.Types.EQ GHC.Types.LT))
(assert (= (strLen lit$36$InterfaceAdapters.AgricultureRestService) 40))
(assert (= (strLen lit$36$MaximumCity$45$0.9.9$45$IUoVqdUkwWmEGL6yhjWbHS) 40))
(push 1)
(push 1)
(pop 1)
(pop 1)
(exit)
